Rodando pra 1h

Optimize a model with 360087 rows, 539172 columns and 13281031 nonzeros
Coefficient statistics:
  Matrix range    [1e+00, 1e+04]
  Objective range [2e-01, 2e-01]
  Bounds range    [1e+00, 1e+04]
  RHS range       [1e+00, 1e+04]
Presolve removed 1 rows and 1 columns (presolve time = 5s) ...
Presolve removed 1 rows and 1 columns (presolve time = 14s) ...
Presolve removed 2 rows and 2 columns (presolve time = 20s) ...
Presolve removed 2 rows and 2 columns (presolve time = 20s) ...
Presolve removed 2 rows and 2 columns (presolve time = 26s) ...
Presolve removed 2 rows and 2 columns (presolve time = 31s) ...
Presolve removed 2 rows and 2 columns (presolve time = 35s) ...
Presolve removed 2 rows and 2 columns (presolve time = 42s) ...
Presolve removed 2 rows and 2 columns (presolve time = 46s) ...
Presolve removed 2 rows and 2 columns (presolve time = 50s) ...
Presolve removed 2 rows and 2 columns (presolve time = 56s) ...
Presolve removed 2 rows and 2 columns (presolve time = 61s) ...
Presolve removed 2 rows and 2 columns (presolve time = 65s) ...
Presolve removed 2 rows and 2 columns (presolve time = 72s) ...
Presolve removed 2 rows and 2 columns (presolve time = 76s) ...
Presolve removed 2 rows and 2 columns (presolve time = 81s) ...
Presolve removed 2 rows and 2 columns (presolve time = 86s) ...
Presolve removed 2 rows and 2 columns (presolve time = 90s) ...
Presolve removed 2 rows and 2 columns (presolve time = 97s) ...
Presolve removed 2 rows and 2 columns (presolve time = 103s) ...
Presolve removed 2 rows and 2 columns (presolve time = 105s) ...
Presolve removed 2 rows and 2 columns (presolve time = 110s) ...
Presolve removed 2 rows and 2 columns (presolve time = 115s) ...
Presolve removed 2 rows and 2 columns (presolve time = 121s) ...
Presolve removed 2 rows and 2 columns (presolve time = 126s) ...
Presolve removed 2 rows and 2 columns (presolve time = 131s) ...
Presolve removed 2 rows and 2 columns (presolve time = 136s) ...
Presolve removed 2 rows and 2 columns (presolve time = 146s) ...
Presolve removed 2 rows and 2 columns (presolve time = 168s) ...
Presolve removed 2 rows and 2 columns
Presolve time: 167.62s
Presolved: 360085 rows, 539170 columns, 13281019 nonzeros
Variable types: 359400 continuous, 179770 integer (179764 binary)
Optimize a model with 360085 rows, 539170 columns and 13281019 nonzeros
Coefficient statistics:
  Matrix range    [1e+00, 1e+04]
  Objective range [2e-01, 2e-01]
  Bounds range    [1e+00, 1e+04]
  RHS range       [1e+00, 2e+04]
Presolve removed 0 rows and 0 columns (presolve time = 6s) ...
Presolved: 360085 rows, 539170 columns, 13281019 nonzeros


Root simplex log...

Iteration    Objective       Primal Inf.    Dual Inf.      Time
       0    0.0000000e+00   1.810585e+03   0.000000e+00    207s
    1247    0.0000000e+00   0.000000e+00   0.000000e+00    208s

Root relaxation: objective 0.000000e+00, 1247 iterations, 12.05 seconds

    Nodes    |    Current Node    |     Objective Bounds      |     Work
 Expl Unexpl |  Obj  Depth IntInf | Incumbent    BestBd   Gap | It/Node Time

     0     0    0.00000    0  621          -    0.00000      -     - 3628s

Explored 0 nodes (135374 simplex iterations) in 3628.16 seconds
Thread count was 1 (of 4 available processors)

Time limit reached
Best objective -, best bound 0.000000000000e+00, gap -
Tempo: 3595.57 segundos

Error code = 10004
Var::get
